c Result of efficient AIG-to-CNF conversion using package CNF
p cnf 340 1202
-2 3 278 -279 -307 0
-2 3 278 279 307 0
2 -278 0
2 -279 307 0
2 -3 0
2 279 -307 0
-3 4 213 218 0
-3 -103 213 218 0
3 -218 0
3 -213 0
3 -4 103 0
4 5 -77 0
4 -5 77 0
-4 -5 -77 0
-4 5 77 0
5 -6 -33 0
5 -33 -67 0
5 -6 -67 0
-5 6 67 0
-5 33 67 0
-5 6 33 0
6 7 -22 0
6 -7 22 0
-6 -7 -22 0
-6 7 22 0
7 -8 -15 0
-7 8 0
-7 15 0
8 9 -12 0
8 -9 12 0
-8 -9 -12 0
-8 9 12 0
9 10 -11 0
9 -10 11 0
-9 -10 -11 0
-9 10 11 0
10 308 -309 0
10 -308 309 0
-10 -308 -309 0
-10 308 309 0
11 310 -311 0
11 -310 311 0
-11 -310 -311 0
-11 310 311 0
12 13 -14 0
12 -13 14 0
-12 -13 -14 0
-12 13 14 0
13 312 -313 0
13 -312 313 0
-13 -312 -313 0
-13 312 313 0
14 314 -315 0
14 -314 315 0
-14 -314 -315 0
-14 314 315 0
15 16 -19 0
15 -16 19 0
-15 -16 -19 0
-15 16 19 0
16 17 -18 0
16 -17 18 0
-16 -17 -18 0
-16 17 18 0
17 316 -317 0
17 -316 317 0
-17 -316 -317 0
-17 316 317 0
18 318 -319 0
18 -318 319 0
-18 -318 -319 0
-18 318 319 0
19 20 -21 0
19 -20 21 0
-19 -20 -21 0
-19 20 21 0
20 320 -321 0
20 -320 321 0
-20 -320 -321 0
-20 320 321 0
21 322 -323 0
21 -322 323 0
-21 -322 -323 0
-21 322 323 0
22 23 -28 0
22 -23 28 0
-22 -23 -28 0
-22 23 28 0
23 24 -25 0
23 -24 25 0
-23 -24 -25 0
-23 24 25 0
24 -9 -12 0
-24 9 0
-24 12 0
25 -26 27 0
25 26 -27 0
-25 26 27 0
-25 -26 -27 0
-26 308 309 311 0
-26 308 310 311 0
-26 309 310 311 0
-26 308 309 310 0
-26 -308 -309 -310 -311 0
26 308 -309 -310 0
26 -308 -310 311 0
26 -309 310 -311 0
26 -308 309 -311 0
26 308 -310 -311 0
26 -308 -309 310 0
-27 312 313 315 0
-27 312 314 315 0
-27 313 314 315 0
-27 312 313 314 0
-27 -312 -313 -314 -315 0
27 312 -313 -314 0
27 -312 -314 315 0
27 -313 314 -315 0
27 -312 313 -315 0
27 312 -314 -315 0
27 -312 -313 314 0
28 29 -30 0
28 -29 30 0
-28 -29 -30 0
-28 29 30 0
29 -16 -19 0
-29 16 0
-29 19 0
30 -31 32 0
30 31 -32 0
-30 31 32 0
-30 -31 -32 0
-31 316 317 319 0
-31 316 318 319 0
-31 317 318 319 0
-31 316 317 318 0
-31 -316 -317 -318 -319 0
31 316 -317 -318 0
31 -316 -318 319 0
31 -317 318 -319 0
31 -316 317 -319 0
31 316 -318 -319 0
31 -316 -317 318 0
-32 320 321 323 0
-32 320 322 323 0
-32 321 322 323 0
-32 320 321 322 0
-32 -320 -321 -322 -323 0
32 320 -321 -322 0
32 -320 -322 323 0
32 -321 322 -323 0
32 -320 321 -323 0
32 320 -322 -323 0
32 -320 -321 322 0
33 34 -48 0
33 -34 48 0
-33 -34 -48 0
-33 34 48 0
34 -35 42 -45 0
34 -35 -42 45 0
-34 35 0
-34 -42 -45 0
-34 42 45 0
35 332 -36 0
35 -332 36 0
-35 -332 -36 0
-35 332 36 0
36 333 -37 0
36 -333 37 0
-36 -333 -37 0
-36 333 37 0
37 334 -38 0
37 -334 38 0
-37 -334 -38 0
-37 334 38 0
38 -335 39 0
38 335 -39 0
-38 335 39 0
-38 -335 -39 0
-39 -40 -41 0
-39 40 41 0
39 40 -41 0
39 -40 41 0
40 338 -339 0
40 -338 339 0
-40 -338 -339 0
-40 338 339 0
41 336 -337 0
41 -336 337 0
-41 -336 -337 0
-41 336 337 0
42 43 -44 0
42 -43 44 0
-42 -43 -44 0
-42 43 44 0
43 324 -325 0
43 -324 325 0
-43 -324 -325 0
-43 324 325 0
44 326 -327 0
44 -326 327 0
-44 -326 -327 0
-44 326 327 0
45 46 -47 0
45 -46 47 0
-45 -46 -47 0
-45 46 47 0
46 328 -329 0
46 -328 329 0
-46 -328 -329 0
-46 328 329 0
47 330 -331 0
47 -330 331 0
-47 -330 -331 0
-47 330 331 0
48 49 -62 0
48 -49 62 0
-48 -49 -62 0
-48 49 62 0
49 50 -51 0
49 -50 51 0
-49 -50 -51 0
-49 50 51 0
50 -332 -36 0
-50 332 0
-50 36 0
51 52 -53 0
51 -52 53 0
-51 -52 -53 0
-51 52 53 0
52 -333 -37 0
-52 333 0
-52 37 0
53 54 -55 0
53 -54 55 0
-53 -54 -55 0
-53 54 55 0
54 -334 -38 0
-54 334 0
-54 38 0
55 56 -57 0
55 -56 57 0
-55 -56 -57 0
-55 56 57 0
56 -335 -39 0
-56 335 0
-56 39 0
57 -58 60 0
57 58 -60 0
57 58 -59 -61 0
-57 -58 -60 0
-57 58 60 61 0
-57 58 59 60 0
58 -338 -339 0
-58 338 0
-58 339 0
-59 338 339 0
59 -338 0
59 -339 0
60 -336 -337 0
-60 336 0
-60 337 0
-61 336 337 0
61 -336 0
61 -337 0
62 63 -64 0
62 -63 64 0
-62 -63 -64 0
-62 63 64 0
63 -42 -45 0
-63 42 0
-63 45 0
64 -65 66 0
64 65 -66 0
-64 65 66 0
-64 -65 -66 0
-65 324 325 327 0
-65 324 326 327 0
-65 325 326 327 0
-65 324 325 326 0
-65 -324 -325 -326 -327 0
65 324 -325 -326 0
65 -324 -326 327 0
65 -325 326 -327 0
65 -324 325 -327 0
65 324 -326 -327 0
65 -324 -325 326 0
-66 328 329 331 0
-66 328 330 331 0
-66 329 330 331 0
-66 328 329 330 0
-66 -328 -329 -330 -331 0
66 328 -329 -330 0
66 -328 -330 331 0
66 -329 330 -331 0
66 -328 329 -331 0
66 328 -330 -331 0
66 -328 -329 330 0
67 -68 -76 0
-67 68 0
-67 76 0
68 324 -69 0
68 -324 69 0
-68 -324 -69 0
-68 324 69 0
69 325 -70 0
69 -325 70 0
-69 -325 -70 0
-69 325 70 0
70 326 -71 0
70 -326 71 0
-70 -326 -71 0
-70 326 71 0
71 327 -72 0
71 -327 72 0
-71 -327 -72 0
-71 327 72 0
72 328 -73 0
72 -328 73 0
-72 -328 -73 0
-72 328 73 0
73 329 -74 0
73 -329 74 0
-73 -329 -74 0
-73 329 74 0
74 330 -75 0
74 -330 75 0
-74 -330 -75 0
-74 330 75 0
75 331 -35 0
75 -331 35 0
-75 -331 -35 0
-75 331 35 0
76 8 -15 0
76 -8 15 0
-76 -8 -15 0
-76 8 15 0
77 78 -89 0
77 -78 89 0
-77 -78 -89 0
-77 78 89 0
78 79 -80 0
78 -79 80 0
-78 -79 -80 0
-78 79 80 0
79 -7 -23 0
79 -23 -28 0
79 -7 -28 0
-79 7 28 0
-79 23 28 0
-79 7 23 0
80 -81 85 0
80 81 -85 0
-80 81 85 0
-80 -81 -85 0
-81 24 26 82 0
-81 26 27 82 0
-81 24 27 82 0
81 -26 -27 0
81 -24 -26 0
81 -82 0
81 -24 -27 0
82 83 -84 0
82 -83 84 0
-82 -83 -84 0
-82 83 84 0
83 -308 -309 -310 -311 0
-83 311 0
-83 308 0
-83 310 0
-83 309 0
84 -312 -313 -314 -315 0
-84 315 0
-84 312 0
-84 314 0
-84 313 0
-85 29 31 86 0
-85 31 32 86 0
-85 29 32 86 0
85 -31 -32 0
85 -29 -31 0
85 -86 0
85 -29 -32 0
86 87 -88 0
86 -87 88 0
-86 -87 -88 0
-86 87 88 0
87 -316 -317 -318 -319 0
-87 319 0
-87 316 0
-87 318 0
-87 317 0
88 -320 -321 -322 -323 0
-88 323 0
-88 320 0
-88 322 0
-88 321 0
89 90 -91 0
89 -90 91 0
-89 -90 -91 0
-89 90 91 0
90 -34 -49 0
90 -49 -62 0
90 -34 -62 0
-90 34 62 0
-90 49 62 0
-90 34 49 0
91 -92 99 0
91 92 -99 0
-91 92 99 0
-91 -92 -99 0
92 -93 94 0
92 93 -94 0
-92 93 94 0
-92 -93 -94 0
93 -50 -51 0
-93 50 0
-93 51 0
-94 95 96 97 98 0
94 -98 0
94 -97 0
94 -95 0
94 -96 0
95 -336 -337 -338 -339 0
-95 339 0
-95 336 0
-95 338 0
-95 337 0
96 -56 -57 0
-96 56 0
-96 57 0
97 -54 -55 0
-97 54 0
-97 55 0
98 -52 -53 0
-98 52 0
-98 53 0
-99 63 65 100 0
-99 65 66 100 0
-99 63 66 100 0
99 -65 -66 0
99 -63 -65 0
99 -100 0
99 -63 -66 0
100 101 -102 0
100 -101 102 0
-100 -101 -102 0
-100 101 102 0
101 -324 -325 -326 -327 0
-101 327 0
-101 324 0
-101 326 0
-101 325 0
102 -328 -329 -330 -331 0
-102 331 0
-102 328 0
-102 330 0
-102 329 0
103 104 -209 0
103 -104 209 0
-103 -104 -209 0
-103 104 209 0
104 105 -205 0
104 -105 205 0
-104 -105 -205 0
-104 105 205 0
105 106 -201 0
105 -106 201 0
-105 -106 -201 0
-105 106 201 0
106 107 -197 0
106 -107 197 0
-106 -107 -197 0
-106 107 197 0
107 108 -193 0
107 -108 193 0
-107 -108 -193 0
-107 108 193 0
108 109 -189 0
108 -109 189 0
-108 -109 -189 0
-108 109 189 0
109 110 -185 0
109 -110 185 0
-109 -110 -185 0
-109 110 185 0
110 111 -181 0
110 -111 181 0
-110 -111 -181 0
-110 111 181 0
111 112 -177 0
111 -112 177 0
-111 -112 -177 0
-111 112 177 0
112 113 -173 0
112 -113 173 0
-112 -113 -173 0
-112 113 173 0
113 114 -169 0
113 -114 169 0
-113 -114 -169 0
-113 114 169 0
114 115 -145 0
114 -115 145 0
-114 -115 -145 0
-114 115 145 0
115 -116 -121 0
-115 116 0
-115 121 0
116 -319 -117 0
-116 319 0
-116 117 0
117 320 -118 0
117 -320 118 0
-117 -320 -118 0
-117 320 118 0
118 321 -119 0
118 -321 119 0
-118 -321 -119 0
-118 321 119 0
119 322 -120 0
119 -322 120 0
-119 -322 -120 0
-119 322 120 0
120 323 -68 0
120 -323 68 0
-120 -323 -68 0
-120 323 68 0
121 122 -123 0
121 -122 123 0
-121 -122 -123 0
-121 122 123 0
122 -320 -118 0
-122 320 0
-122 118 0
123 124 -125 0
123 -124 125 0
-123 -124 -125 0
-123 124 125 0
124 -321 -119 0
-124 321 0
-124 119 0
125 126 -127 0
125 -126 127 0
-125 -126 -127 0
-125 126 127 0
126 -322 -120 0
-126 322 0
-126 120 0
127 128 -129 0
127 -128 129 0
-127 -128 -129 0
-127 128 129 0
128 -323 -68 0
-128 323 0
-128 68 0
129 130 -131 0
129 -130 131 0
-129 -130 -131 0
-129 130 131 0
130 -324 -69 0
-130 324 0
-130 69 0
131 132 -133 0
131 -132 133 0
-131 -132 -133 0
-131 132 133 0
132 -325 -70 0
-132 325 0
-132 70 0
133 134 -135 0
133 -134 135 0
-133 -134 -135 0
-133 134 135 0
134 -326 -71 0
-134 326 0
-134 71 0
135 136 -137 0
135 -136 137 0
-135 -136 -137 0
-135 136 137 0
136 -327 -72 0
-136 327 0
-136 72 0
137 138 -139 0
137 -138 139 0
-137 -138 -139 0
-137 138 139 0
138 -328 -73 0
-138 328 0
-138 73 0
139 140 -141 0
139 -140 141 0
-139 -140 -141 0
-139 140 141 0
140 -329 -74 0
-140 329 0
-140 74 0
141 142 -143 0
141 -142 143 0
-141 -142 -143 0
-141 142 143 0
142 -330 -75 0
-142 330 0
-142 75 0
143 49 -144 0
143 -49 144 0
-143 -49 -144 0
-143 49 144 0
144 -331 -35 0
-144 331 0
-144 35 0
145 146 -147 0
145 -146 147 0
-145 -146 -147 0
-145 146 147 0
146 -122 -123 0
-146 122 0
-146 123 0
147 148 -149 0
147 -148 149 0
-147 -148 -149 0
-147 148 149 0
148 -124 -125 0
-148 124 0
-148 125 0
149 150 -151 0
149 -150 151 0
-149 -150 -151 0
-149 150 151 0
150 -126 -127 0
-150 126 0
-150 127 0
151 152 -153 0
151 -152 153 0
-151 -152 -153 0
-151 152 153 0
152 -128 -129 0
-152 128 0
-152 129 0
153 154 -155 0
153 -154 155 0
-153 -154 -155 0
-153 154 155 0
154 -130 -131 0
-154 130 0
-154 131 0
155 156 -157 0
155 -156 157 0
-155 -156 -157 0
-155 156 157 0
156 -132 -133 0
-156 132 0
-156 133 0
157 158 -159 0
157 -158 159 0
-157 -158 -159 0
-157 158 159 0
158 -134 -135 0
-158 134 0
-158 135 0
159 160 -161 0
159 -160 161 0
-159 -160 -161 0
-159 160 161 0
160 -136 -137 0
-160 136 0
-160 137 0
161 162 -163 0
161 -162 163 0
-161 -162 -163 0
-161 162 163 0
162 -138 -139 0
-162 138 0
-162 139 0
163 164 -165 0
163 -164 165 0
-163 -164 -165 0
-163 164 165 0
164 -140 -141 0
-164 140 0
-164 141 0
165 166 -167 0
165 -166 167 0
-165 -166 -167 0
-165 166 167 0
166 -142 -143 0
-166 142 0
-166 143 0
167 92 -168 0
167 -92 168 0
-167 -92 -168 0
-167 92 168 0
168 -49 -144 0
-168 49 0
-168 144 0
169 -170 -171 0
-169 170 0
-169 171 0
170 116 -121 0
170 -116 121 0
-170 -116 -121 0
-170 116 121 0
171 -318 -172 0
-171 318 0
-171 172 0
172 319 -117 0
172 -319 117 0
-172 -319 -117 0
-172 319 117 0
173 -174 -176 0
-173 174 0
-173 176 0
174 -317 -175 0
-174 317 0
-174 175 0
175 318 -172 0
175 -318 172 0
-175 -318 -172 0
-175 318 172 0
176 170 -171 0
176 -170 171 0
-176 -170 -171 0
-176 170 171 0
177 -178 -179 0
-177 178 0
-177 179 0
178 174 -176 0
178 -174 176 0
-178 -174 -176 0
-178 174 176 0
179 -316 -180 0
-179 316 0
-179 180 0
180 317 -175 0
180 -317 175 0
-180 -317 -175 0
-180 317 175 0
181 -182 -183 0
-181 182 0
-181 183 0
182 178 -179 0
182 -178 179 0
-182 -178 -179 0
-182 178 179 0
183 -315 -184 0
-183 315 0
-183 184 0
184 316 -180 0
184 -316 180 0
-184 -316 -180 0
-184 316 180 0
185 -186 -187 0
-185 186 0
-185 187 0
186 182 -183 0
186 -182 183 0
-186 -182 -183 0
-186 182 183 0
187 -314 -188 0
-187 314 0
-187 188 0
188 315 -184 0
188 -315 184 0
-188 -315 -184 0
-188 315 184 0
189 -190 -192 0
-189 190 0
-189 192 0
190 -313 -191 0
-190 313 0
-190 191 0
191 314 -188 0
191 -314 188 0
-191 -314 -188 0
-191 314 188 0
192 186 -187 0
192 -186 187 0
-192 -186 -187 0
-192 186 187 0
193 -194 -195 0
-193 194 0
-193 195 0
194 190 -192 0
194 -190 192 0
-194 -190 -192 0
-194 190 192 0
195 -312 -196 0
-195 312 0
-195 196 0
196 313 -191 0
196 -313 191 0
-196 -313 -191 0
-196 313 191 0
197 -198 -199 0
-197 198 0
-197 199 0
198 194 -195 0
198 -194 195 0
-198 -194 -195 0
-198 194 195 0
199 -311 -200 0
-199 311 0
-199 200 0
200 312 -196 0
200 -312 196 0
-200 -312 -196 0
-200 312 196 0
201 -202 -203 0
-201 202 0
-201 203 0
202 198 -199 0
202 -198 199 0
-202 -198 -199 0
-202 198 199 0
203 -310 -204 0
-203 310 0
-203 204 0
204 311 -200 0
204 -311 200 0
-204 -311 -200 0
-204 311 200 0
205 -206 -207 0
-205 206 0
-205 207 0
206 202 -203 0
206 -202 203 0
-206 -202 -203 0
-206 202 203 0
207 -309 -208 0
-207 309 0
-207 208 0
208 310 -204 0
208 -310 204 0
-208 -310 -204 0
-208 310 204 0
209 -210 -211 0
-209 210 0
-209 211 0
210 206 -207 0
210 -206 207 0
-210 -206 -207 0
-210 206 207 0
211 -308 -212 0
-211 308 0
-211 212 0
212 309 -208 0
212 -309 208 0
-212 -309 -208 0
-212 309 208 0
213 -214 -217 0
213 308 212 -217 0
213 308 -214 0
213 212 -214 0
-213 -308 214 0
-213 -308 -212 217 0
-213 -212 214 0
-213 214 217 0
-214 -210 -215 0
-214 210 215 0
214 210 -215 0
214 -210 215 0
215 67 -216 0
215 -67 216 0
-215 -67 -216 0
-215 67 216 0
216 6 -33 0
216 -6 33 0
-216 -6 -33 0
-216 6 33 0
217 68 -76 0
217 -68 76 0
-217 -68 -76 0
-217 68 76 0
-218 -220 245 0
-218 219 -221 0
-218 -220 -221 0
-218 219 245 0
218 221 -245 0
218 -219 220 0
219 -212 214 0
219 -308 214 0
-219 -214 0
-219 308 212 0
220 211 -214 0
220 211 -217 0
-220 -211 0
-220 214 217 0
221 222 -223 0
221 -222 223 0
-221 -222 -223 0
-221 222 223 0
222 -5 -78 0
222 -78 -89 0
222 -5 -89 0
-222 5 89 0
-222 78 89 0
-222 5 78 0
223 -224 228 0
223 224 -228 0
-223 224 228 0
-223 -224 -228 0
-224 79 81 225 0
-224 81 85 225 0
-224 79 85 225 0
224 -81 -85 0
224 -79 -81 0
224 -225 0
224 -79 -85 0
225 226 -227 0
225 -226 227 0
-225 -226 -227 0
-225 226 227 0
226 -83 -84 0
-226 83 0
-226 84 0
227 -87 -88 0
-227 87 0
-227 88 0
-228 231 -232 0
-228 229 230 231 0
228 -231 0
228 -229 232 0
228 -230 232 0
229 -93 -94 0
-229 93 0
-229 94 0
230 -101 -102 0
-230 101 0
-230 102 0
231 -90 -92 0
231 -92 -99 0
231 -90 -99 0
-231 92 99 0
-231 90 92 0
-231 90 99 0
232 -233 -234 0
-232 233 0
-232 234 0
233 -154 -155 0
-233 154 0
-233 155 0
-234 235 236 237 0
234 -237 0
234 -236 0
234 -235 0
235 -158 -159 0
-235 158 0
-235 159 0
236 -156 -157 0
-236 156 0
-236 157 0
-237 238 239 240 0
237 -240 0
237 -239 0
237 -238 0
238 -162 -163 0
-238 162 0
-238 163 0
239 -160 -161 0
-239 160 0
-239 161 0
-240 241 242 243 0
240 -243 0
240 -242 0
240 -241 0
241 -166 -167 0
-241 166 0
-241 167 0
242 -164 -165 0
-242 164 0
-242 165 0
-243 229 244 0
243 -229 0
243 -244 0
244 -92 -168 0
-244 92 0
-244 168 0
245 246 -247 0
245 -246 247 0
-245 -246 -247 0
-245 246 247 0
246 -104 -209 0
-246 104 0
-246 209 0
247 248 -249 0
247 -248 249 0
-247 -248 -249 0
-247 248 249 0
248 -105 -205 0
-248 105 0
-248 205 0
249 250 -251 0
249 -250 251 0
-249 -250 -251 0
-249 250 251 0
250 -106 -201 0
-250 106 0
-250 201 0
251 252 -253 0
251 -252 253 0
-251 -252 -253 0
-251 252 253 0
252 -107 -197 0
-252 107 0
-252 197 0
253 254 -255 0
253 -254 255 0
-253 -254 -255 0
-253 254 255 0
254 -108 -193 0
-254 108 0
-254 193 0
255 256 -257 0
255 -256 257 0
-255 -256 -257 0
-255 256 257 0
256 -109 -189 0
-256 109 0
-256 189 0
257 258 -259 0
257 -258 259 0
-257 -258 -259 0
-257 258 259 0
258 -110 -185 0
-258 110 0
-258 185 0
259 260 -261 0
259 -260 261 0
-259 -260 -261 0
-259 260 261 0
260 -111 -181 0
-260 111 0
-260 181 0
261 262 -263 0
261 -262 263 0
-261 -262 -263 0
-261 262 263 0
262 -112 -177 0
-262 112 0
-262 177 0
263 264 -265 0
263 -264 265 0
-263 -264 -265 0
-263 264 265 0
264 -113 -173 0
-264 113 0
-264 173 0
265 266 -267 0
265 -266 267 0
-265 -266 -267 0
-265 266 267 0
266 -114 -169 0
-266 114 0
-266 169 0
267 268 -269 0
267 -268 269 0
-267 -268 -269 0
-267 268 269 0
268 -115 -145 0
-268 115 0
-268 145 0
269 270 -271 0
269 -270 271 0
-269 -270 -271 0
-269 270 271 0
270 -146 -147 0
-270 146 0
-270 147 0
271 272 -273 0
271 -272 273 0
-271 -272 -273 0
-271 272 273 0
272 -148 -149 0
-272 148 0
-272 149 0
273 274 -275 0
273 -274 275 0
-273 -274 -275 0
-273 274 275 0
274 -150 -151 0
-274 150 0
-274 151 0
275 276 -277 0
275 -276 277 0
-275 -276 -277 0
-275 276 277 0
276 -152 -153 0
-276 152 0
-276 153 0
277 -233 234 0
277 233 -234 0
-277 233 234 0
-277 -233 -234 0
-278 -4 -245 0
-278 103 221 0
-278 -4 221 0
-278 103 -245 0
278 4 -103 0
278 -221 245 0
-279 281 -282 0
-279 280 232 281 0
279 -281 0
279 -280 282 0
279 -232 282 0
280 -226 -227 0
-280 226 0
-280 227 0
281 -224 -228 0
281 -222 -224 0
281 -222 -228 0
-281 222 224 0
-281 224 228 0
-281 222 228 0
282 -283 -284 0
-282 283 0
-282 284 0
283 -246 -247 0
-283 246 0
-283 247 0
-284 285 286 0
284 -285 0
284 -286 0
285 -248 -249 0
-285 248 0
-285 249 0
-286 287 288 289 0
286 -289 0
286 -288 0
286 -287 0
287 -252 -253 0
-287 252 0
-287 253 0
288 -250 -251 0
-288 250 0
-288 251 0
-289 290 291 292 0
289 -292 0
289 -291 0
289 -290 0
290 -256 -257 0
-290 256 0
-290 257 0
291 -254 -255 0
-291 254 0
-291 255 0
-292 293 294 295 0
292 -295 0
292 -294 0
292 -293 0
293 -260 -261 0
-293 260 0
-293 261 0
294 -258 -259 0
-294 258 0
-294 259 0
-295 296 297 298 0
295 -298 0
295 -297 0
295 -296 0
296 -264 -265 0
-296 264 0
-296 265 0
297 -262 -263 0
-297 262 0
-297 263 0
-298 299 300 301 0
298 -301 0
298 -300 0
298 -299 0
299 -268 -269 0
-299 268 0
-299 269 0
300 -266 -267 0
-300 266 0
-300 267 0
-301 302 303 304 305 0
301 -305 0
301 -304 0
301 -302 0
301 -303 0
302 -274 -275 0
-302 274 0
-302 275 0
303 -272 -273 0
-303 272 0
-303 273 0
304 -270 -271 0
-304 270 0
-304 271 0
-305 232 306 0
305 -232 0
305 -306 0
306 -276 -277 0
-306 276 0
-306 277 0
307 -283 284 0
307 283 -284 0
-307 283 284 0
-307 -283 -284 0
-340 0
2 0

